NAME          b-ball
ROWS
 N  obj     
 L  c1      
 L  c2      
 L  c3      
 L  c4      
 L  c5      
 L  c6      
 L  c7      
 L  c8      
 L  c9      
 L  c10     
 L  c11     
 E  c12     
 E  c13     
 E  c14     
 E  c15     
 E  c16     
 E  c17     
 E  c18     
 E  c19     
 E  c20     
 E  c21     
 E  c22     
 E  c23     
 E  c24     
 E  c25     
 E  c26     
 E  c27     
 E  c28     
 E  c29     
 E  c30     
COLUMNS
    x12       obj                            -1
    x12       c1                              1
    x12       c2                              1
    x12       c3                              1
    x12       c4                              1
    x12       c5                              1
    x12       c6                              1
    x12       c7                              1
    x12       c8                              1
    x12       c9                              1
    x12       c10                             1
    x12       c11                             1
    x1        c1                             -1
    x1        c12                             2
    x2        c2                             -1
    x2        c13                             2
    x3        c3                             -1
    x3        c14                             2
    x4        c4                             -1
    x4        c15                             2
    x5        c5                             -1
    x5        c16                             2
    x6        c6                             -1
    x6        c17                             2
    x7        c7                             -1
    x7        c18                             2
    x8        c8                             -1
    x8        c19                             2
    x9        c9                             -1
    x9        c20                             2
    x10       c10                            -1
    x10       c21                             2
    x11       c11                            -1
    x11       c22                             2
    MARK0000  'MARKER'                 'INTORG'
    x13       c12                            -1
    x13       c23                             1
    x14       c12                            -1
    x14       c24                             1
    x15       c12                            -1
    x15       c25                             1
    x16       c12                            -1
    x16       c26                             1
    x17       c12                            -1
    x17       c27                             1
    x18       c12                            -1
    x18       c28                             1
    x19       c12                            -1
    x19       c29                             1
    x20       c12                            -1
    x20       c30                             1
    x21       c13                            -1
    x21       c23                             1
    x22       c13                            -1
    x22       c24                             1
    x23       c13                            -1
    x23       c25                             1
    x24       c13                            -1
    x24       c26                             1
    x25       c13                            -1
    x25       c27                             1
    x26       c13                            -1
    x26       c28                             1
    x27       c13                            -1
    x27       c29                             1
    x28       c13                            -1
    x28       c30                             1
    x29       c14                            -1
    x29       c23                             1
    x30       c14                            -1
    x30       c24                             1
    x31       c14                            -1
    x31       c25                             1
    x32       c14                            -1
    x32       c26                             1
    x33       c14                            -1
    x33       c27                             1
    x34       c14                            -1
    x34       c28                             1
    x35       c14                            -1
    x35       c29                             1
    x36       c14                            -1
    x36       c30                             1
    x37       c15                            -1
    x37       c23                             1
    x38       c15                            -1
    x38       c24                             1
    x39       c15                            -1
    x39       c25                             1
    x40       c15                            -1
    x40       c26                             1
    x41       c15                            -1
    x41       c27                             1
    x42       c15                            -1
    x42       c28                             1
    x43       c15                            -1
    x43       c29                             1
    x44       c15                            -1
    x44       c30                             1
    x45       c16                            -1
    x45       c23                             1
    x46       c16                            -1
    x46       c24                             1
    x47       c16                            -1
    x47       c25                             1
    x48       c16                            -1
    x48       c26                             1
    x49       c16                            -1
    x49       c27                             1
    x50       c16                            -1
    x50       c28                             1
    x51       c16                            -1
    x51       c29                             1
    x52       c16                            -1
    x52       c30                             1
    x53       c17                            -1
    x53       c23                             1
    x54       c17                            -1
    x54       c24                             1
    x55       c17                            -1
    x55       c25                             1
    x56       c17                            -1
    x56       c26                             1
    x57       c17                            -1
    x57       c27                             1
    x58       c17                            -1
    x58       c28                             1
    x59       c17                            -1
    x59       c29                             1
    x60       c17                            -1
    x60       c30                             1
    x61       c18                            -1
    x61       c23                             1
    x62       c18                            -1
    x62       c24                             1
    x63       c18                            -1
    x63       c25                             1
    x64       c18                            -1
    x64       c26                             1
    x65       c18                            -1
    x65       c27                             1
    x66       c18                            -1
    x66       c28                             1
    x67       c18                            -1
    x67       c29                             1
    x68       c18                            -1
    x68       c30                             1
    x69       c19                            -1
    x69       c23                             1
    x70       c19                            -1
    x70       c24                             1
    x71       c19                            -1
    x71       c25                             1
    x72       c19                            -1
    x72       c26                             1
    x73       c19                            -1
    x73       c27                             1
    x74       c19                            -1
    x74       c28                             1
    x75       c19                            -1
    x75       c29                             1
    x76       c19                            -1
    x76       c30                             1
    x77       c20                            -1
    x77       c23                             1
    x78       c20                            -1
    x78       c24                             1
    x79       c20                            -1
    x79       c25                             1
    x80       c20                            -1
    x80       c26                             1
    x81       c20                            -1
    x81       c27                             1
    x82       c20                            -1
    x82       c28                             1
    x83       c20                            -1
    x83       c29                             1
    x84       c20                            -1
    x84       c30                             1
    x85       c21                            -1
    x85       c23                             1
    x86       c21                            -1
    x86       c24                             1
    x87       c21                            -1
    x87       c25                             1
    x88       c21                            -1
    x88       c26                             1
    x89       c21                            -1
    x89       c27                             1
    x90       c21                            -1
    x90       c28                             1
    x91       c21                            -1
    x91       c29                             1
    x92       c21                            -1
    x92       c30                             1
    x93       c22                            -1
    x93       c23                             1
    x94       c22                            -1
    x94       c24                             1
    x95       c22                            -1
    x95       c25                             1
    x96       c22                            -1
    x96       c26                             1
    x97       c22                            -1
    x97       c27                             1
    x98       c22                            -1
    x98       c28                             1
    x99       c22                            -1
    x99       c29                             1
    x100      c22                            -1
    x100      c30                             1
    MARK0001  'MARKER'                 'INTEND'
RHS
    rhs       c23                             5
    rhs       c24                             5
    rhs       c25                             5
    rhs       c26                             5
    rhs       c27                             5
    rhs       c28                             5
    rhs       c29                             5
    rhs       c30                             5
BOUNDS
 UP bnd       x13                             1
 UP bnd       x14                             1
 UP bnd       x15                             1
 UP bnd       x16                             1
 UP bnd       x17                             1
 UP bnd       x18                             1
 UP bnd       x19                             1
 UP bnd       x20                             1
 UP bnd       x21                             1
 UP bnd       x22                             1
 UP bnd       x23                             1
 UP bnd       x24                             1
 UP bnd       x25                             1
 UP bnd       x26                             1
 UP bnd       x27                             1
 UP bnd       x28                             1
 UP bnd       x29                             1
 UP bnd       x30                             1
 UP bnd       x31                             1
 UP bnd       x32                             1
 UP bnd       x33                             1
 UP bnd       x34                             1
 UP bnd       x35                             1
 UP bnd       x36                             1
 UP bnd       x37                             1
 UP bnd       x38                             1
 UP bnd       x39                             1
 UP bnd       x40                             1
 UP bnd       x41                             1
 UP bnd       x42                             1
 UP bnd       x43                             1
 UP bnd       x44                             1
 UP bnd       x45                             1
 UP bnd       x46                             1
 UP bnd       x47                             1
 UP bnd       x48                             1
 UP bnd       x49                             1
 UP bnd       x50                             1
 UP bnd       x51                             1
 UP bnd       x52                             1
 UP bnd       x53                             1
 UP bnd       x54                             1
 UP bnd       x55                             1
 UP bnd       x56                             1
 UP bnd       x57                             1
 UP bnd       x58                             1
 UP bnd       x59                             1
 UP bnd       x60                             1
 UP bnd       x61                             1
 UP bnd       x62                             1
 UP bnd       x63                             1
 UP bnd       x64                             1
 UP bnd       x65                             1
 UP bnd       x66                             1
 UP bnd       x67                             1
 UP bnd       x68                             1
 UP bnd       x69                             1
 UP bnd       x70                             1
 UP bnd       x71                             1
 UP bnd       x72                             1
 UP bnd       x73                             1
 UP bnd       x74                             1
 UP bnd       x75                             1
 UP bnd       x76                             1
 UP bnd       x77                             1
 UP bnd       x78                             1
 UP bnd       x79                             1
 UP bnd       x80                             1
 UP bnd       x81                             1
 UP bnd       x82                             1
 UP bnd       x83                             1
 UP bnd       x84                             1
 UP bnd       x85                             1
 UP bnd       x86                             1
 UP bnd       x87                             1
 UP bnd       x88                             1
 UP bnd       x89                             1
 UP bnd       x90                             1
 UP bnd       x91                             1
 UP bnd       x92                             1
 UP bnd       x93                             1
 UP bnd       x94                             1
 UP bnd       x95                             1
 UP bnd       x96                             1
 UP bnd       x97                             1
 UP bnd       x98                             1
 UP bnd       x99                             1
 UP bnd       x100                            1
ENDATA
